NAME          ClpDefau
ROWS
 N  OBJROW
 L  R_308_0
 L  R_308_1
 L  R_308_2
 L  R_308_3
 L  R_308_4
 L  R_308_5
 L  R_308_6
 L  R_308_7
 L  R_308_8
 L  R_308_9
 L  R_308_10
 L  R_308_11
 L  R_308_12
 L  R_308_13
 L  R_308_14
 L  R_308_15
COLUMNS
    x_0       OBJROW     -8.           R_308_1   93.         
    x_0       R_308_3   48.            R_308_4   57.         
    x_0       R_308_5   5.             R_308_7   41.         
    x_0       R_308_9   68.            R_308_10  23.         
    x_0       R_308_11  4.             R_308_12  23.         
    x_0       R_308_13  66.            R_308_14  66.         
    x_0       R_308_15  24.         
    x_1       OBJROW     -12.          R_308_1   54.         
    x_1       R_308_2   98.            R_308_3   76.         
    x_1       R_308_4   58.            R_308_5   97.         
    x_1       R_308_6   95.            R_308_7   68.         
    x_1       R_308_8   36.            R_308_10  46.         
    x_1       R_308_11  59.            R_308_13  73.         
    x_1       R_308_14  72.            R_308_15  63.         
    x_2       OBJROW     -11.          R_308_0   42.         
    x_2       R_308_4   99.            R_308_6   91.         
    x_2       R_308_8   65.            R_308_9   76.         
    x_2       R_308_10  94.            R_308_11  66.         
    x_2       R_308_12  88.            R_308_13  10.         
    x_2       R_308_14  44.            R_308_15  25.         
    x_3       OBJROW     -47.          R_308_1   74.         
    x_3       R_308_2   35.            R_308_3   88.         
    x_3       R_308_5   67.            R_308_6   35.         
    x_3       R_308_7   27.            R_308_9   92.         
    x_3       R_308_10  8.             R_308_11  23.         
    x_3       R_308_12  4.             R_308_13  9.          
    x_3       R_308_14  94.         
    x_4       OBJROW     -22.          R_308_0   17.         
    x_4       R_308_2   24.            R_308_3   1.          
    x_4       R_308_4   6.             R_308_5   32.         
    x_4       R_308_6   5.             R_308_7   79.         
    x_4       R_308_8   96.            R_308_9   44.         
    x_4       R_308_10  40.            R_308_11  99.         
    x_4       R_308_12  6.             R_308_14  80.         
    x_4       R_308_15  61.         
    x_5       OBJROW     -95.          R_308_1   88.         
    x_5       R_308_2   14.            R_308_3   17.         
    x_5       R_308_4   100.           R_308_5   66.         
    x_5       R_308_6   44.            R_308_7   78.         
    x_5       R_308_9   90.            R_308_10  18.         
    x_5       R_308_11  33.            R_308_12  21.         
    x_5       R_308_13  59.            R_308_14  66.         
    x_6       OBJROW     -86.          R_308_0   5.          
    x_6       R_308_2   57.            R_308_3   11.         
    x_6       R_308_4   80.            R_308_5   80.         
    x_6       R_308_6   33.            R_308_7   36.         
    x_6       R_308_8   1.             R_308_9   50.         
    x_6       R_308_10  15.            R_308_11  12.         
    x_6       R_308_12  13.            R_308_13  97.         
    x_6       R_308_14  28.            R_308_15  86.         
    x_7       OBJROW     -40.          R_308_0   40.         
    x_7       R_308_1   49.            R_308_2   98.         
    x_7       R_308_4   56.            R_308_5   3.          
    x_7       R_308_6   7.             R_308_9   13.         
    x_7       R_308_10  62.            R_308_11  67.         
    x_7       R_308_13  47.            R_308_14  48.         
    x_7       R_308_15  88.         
    x_8       OBJROW     -33.          R_308_0   14.         
    x_8       R_308_1   100.           R_308_2   3.          
    x_8       R_308_4   82.            R_308_5   27.         
    x_8       R_308_7   1.             R_308_8   48.         
    x_8       R_308_9   93.            R_308_10  97.         
    x_8       R_308_11  15.            R_308_12  51.         
    x_8       R_308_13  18.            R_308_14  51.         
    x_9       OBJROW     -78.          R_308_0   16.         
    x_9       R_308_1   43.            R_308_2   28.         
    x_9       R_308_3   4.             R_308_4   61.         
    x_9       R_308_5   93.            R_308_6   38.         
    x_9       R_308_7   59.            R_308_8   48.         
    x_9       R_308_9   68.            R_308_11  94.         
    x_9       R_308_15  30.         
    x_10      OBJROW     -28.          R_308_0   77.         
    x_10      R_308_1   55.            R_308_2   90.         
    x_10      R_308_4   74.            R_308_5   46.         
    x_10      R_308_6   70.            R_308_7   54.         
    x_10      R_308_9   88.            R_308_11  17.         
    x_10      R_308_13  91.            R_308_14  88.         
    x_10      R_308_15  23.         
    x_11      OBJROW     -78.          R_308_0   15.         
    x_11      R_308_1   97.            R_308_2   43.         
    x_11      R_308_3   92.            R_308_4   22.         
    x_11      R_308_6   91.            R_308_7   46.         
    x_11      R_308_8   74.            R_308_9   60.         
    x_11      R_308_10  4.             R_308_12  95.         
    x_11      R_308_13  66.            R_308_14  36.         
    x_11      R_308_15  91.         
    x_12      OBJROW     -5.           R_308_0   53.         
    x_12      R_308_1   61.            R_308_2   71.         
    x_12      R_308_3   96.            R_308_5   93.         
    x_12      R_308_6   80.            R_308_7   86.         
    x_12      R_308_8   82.            R_308_10  68.         
    x_12      R_308_11  60.            R_308_12  13.         
    x_12      R_308_13  28.            R_308_14  78.         
    x_12      R_308_15  28.         
    x_13      OBJROW     -75.          R_308_1   72.         
    x_13      R_308_2   26.            R_308_3   76.         
    x_13      R_308_4   63.            R_308_6   79.         
    x_13      R_308_7   62.            R_308_8   73.         
    x_13      R_308_9   92.            R_308_10  98.         
    x_13      R_308_11  1.             R_308_13  86.         
    x_13      R_308_14  97.            R_308_15  87.         
    x_14      OBJROW     -88.          R_308_1   65.         
    x_14      R_308_2   11.            R_308_3   45.         
    x_14      R_308_4   97.            R_308_7   81.         
    x_14      R_308_8   93.            R_308_9   21.         
    x_14      R_308_10  60.            R_308_11  20.         
    x_14      R_308_12  72.            R_308_13  1.          
    x_14      R_308_14  69.         
    x_15      OBJROW     -21.          R_308_0   27.         
    x_15      R_308_2   84.            R_308_3   89.         
    x_15      R_308_4   39.            R_308_5   41.         
    x_15      R_308_6   83.            R_308_8   83.         
    x_15      R_308_9   12.            R_308_10  27.         
    x_15      R_308_11  68.            R_308_13  65.         
    x_15      R_308_14  40.            R_308_15  59.         
RHS
    RHS       R_308_0   783.           R_308_1   699.        
    RHS       R_308_2   773.           R_308_3   711.        
    RHS       R_308_4   655.           R_308_5   668.        
    RHS       R_308_6   668.           R_308_7   812.        
    RHS       R_308_8   849.           R_308_9   841.        
    RHS       R_308_10  737.           R_308_11  733.        
    RHS       R_308_12  694.           R_308_13  721.        
    RHS       R_308_14  731.           R_308_15  659.        
BOUNDS
 UI BOUND     x_0       100.        
 UI BOUND     x_1       100.        
 UI BOUND     x_2       100.        
 UI BOUND     x_3       100.        
 UI BOUND     x_4       100.        
 UI BOUND     x_5       100.        
 UI BOUND     x_6       100.        
 UI BOUND     x_7       100.        
 UI BOUND     x_8       100.        
 UI BOUND     x_9       100.        
 UI BOUND     x_10      100.        
 UI BOUND     x_11      100.        
 UI BOUND     x_12      100.        
 UI BOUND     x_13      100.        
 UI BOUND     x_14      100.        
 UI BOUND     x_15      100.        
ENDATA
